32      4       
10      10      10      10      
0       0       0       0       0       6       2       3       4       5       6       7       
6       1       0       1       1       5       8       9       10      11      12      
3       0       1       1       2       5       8       9       10      11      12      
9       3       0       3       5       5       8       9       10      11      12      
5       6       7       8       0       4       8       9       11      12      
2       2       5       0       6       4       8       9       11      12      
9       4       5       0       6       3       8       11      12      
2       0       2       5       4       5       13      14      15      16      17      
4       4       0       10      4       5       13      14      15      16      17      
4       0       4       4       4       5       13      14      15      16      17      
4       0       4       4       4       4       13      14      15      16      
8       3       4       4       0       4       13      14      15      16      
6       5       2       3       0       6       18      19      20      21      23      24      
9       5       3       2       0       6       18      19      20      21      22      23      
8       4       4       0       4       5       18      20      21      23      24      
3       0       4       4       3       5       18      19      21      22      23      
8       6       1       2       0       5       18      19      20      22      24      
3       4       0       3       6       3       25      26      31      
4       3       4       0       4       3       25      26      31      
10      4       8       6       0       3       25      26      31      
3       0       2       2       5       3       25      26      31      
9       4       0       5       4       3       25      26      31      
10      3       6       0       5       3       26      30      31      
5       5       4       6       0       3       26      30      31      
10      3       2       5       0       4       27      28      29      30      
7       2       5       3       0       3       27      28      29      
2       5       6       5       0       1       32      
7       4       3       0       3       1       32      
3       6       7       0       3       1       32      
3       0       3       4       5       1       32      
8       6       0       2       2       1       32      
0       0       0       0       0       0       
